120 150

60
60
59
42
51
53
50
46
55
51
49
58
41
55
52
43
45
45
49
60
56
45
50
58
51
58
54
51
41
41
56
49
45
54
56
46
40
58
50
45
45
60
60
47
49
46
56
40
51
53
52
58
40
58
46
50
55
45
43
54
42
48
55
60
51
53
57
41
57
47
50
58
49
58
46
46
55
54
41
45
58
58
48
53
43
47
52
52
57
52
53
57
48
41
53
43
44
53
44
60
57
49
45
40
58
45
55
49
45
43
47
46
45
58
47
49
54
52
41
57